444934
444934
444934
444934
444934
444934
444934
444934
444934
444934
444934
444934
444934
444934
444934
444934
444934
444934
444934
444934
444934
444934
444934
444934
444934
444934
444934
444934
444934
444934
444934
444934
444934
444934
444934
444934
444934
444934
444934
444934
444934
444934
444934
444934
444934
444934
444934
444934
444934
444934
444934
444934
444934
444934
444934
444934
444934
444934
444934
444934
444934
444934
444934
444934
444934
444934
444934
444934
444934
444934
444934
444934
444934
444934
444934
444934
444934
444934
444934
444934
444934
444934
444934
444934
444934
444934
444934
444934
444934
444934
444934
444934
444934
444934
444934
444934
444934
444934
444934
444934
